/*********************************************
 * OPL 12.6.0.0 Data
 * Author: Adrian Rodriguez Bazaga, Pau Rodriguez Esmerats
 * Creation Date: 06/12/2017 at 23:03:09
 *********************************************/

nNurses=296;
maxConsec=2;
maxPresence=7;
maxHours=5;
minHours=1;
hours=24;
demand= [61 43 71 82 43 71 82 47 39 25 2 7 5 8 5 4 3 4 3 1 39 74 35 73  ];
